65
1 0 2
2 1 5
3 1 3
3 2 4
5 2 1
5 3 2
6 1 5
6 2 2
6 3 4
6 5 2
7 1 1
7 2 3
7 5 2
7 6 4
8 7 4
9 0 3
9 3 2
9 4 1
9 5 1
9 6 3
9 7 2
10 0 4
10 1 1
10 6 2
11 1 4
11 2 1
11 3 5
11 6 5
11 10 5
12 1 4
12 2 5
12 5 3
12 9 5
12 10 3
13 1 1
13 2 4
13 4 1
13 5 5
13 7 1
13 8 5
13 9 5
13 11 5
14 2 1
14 3 1
14 4 5
14 6 1
14 9 1
14 10 4
15 4 3
15 5 5
15 6 2
15 7 3
15 10 3
15 11 1
15 12 2
15 13 3
15 14 4
16 1 3
16 2 3
16 4 4
16 7 5
16 8 3
16 9 3
16 11 3
17 0 5
17 1 5
17 3 2
17 5 3
17 12 1
17 14 2
17 16 2
18 2 2
18 3 2
18 4 2
18 7 2
18 9 4
18 10 3
18 12 5
18 13 1
18 15 1
18 17 5
19 0 4
19 2 2
19 3 3
19 4 1
19 8 3
19 10 4
19 11 4
19 15 5
19 18 4
20 2 4
20 5 2
20 6 4
20 8 2
20 9 2
20 10 3
20 11 2
20 13 3
20 14 3
20 16 1
20 17 4
20 18 1
20 19 3
21 0 1
21 4 5
21 6 4
21 7 4
21 8 1
21 10 1
21 11 3
21 12 2
21 13 4
21 16 3
21 19 1
21 20 3
22 0 3
22 5 4
22 6 3
22 7 2
22 8 3
22 9 2
22 10 2
22 11 5
22 13 1
22 14 4
22 16 1
23 0 5
23 3 4
23 4 1
23 9 3
23 13 2
23 14 3
23 15 3
23 16 4
23 19 3
23 21 5
23 22 4
24 2 3
24 3 4
24 5 5
24 7 3
24 11 3
24 12 3
24 13 1
24 14 1
24 15 1
24 17 2
24 19 5
25 0 3
25 1 1
25 2 3
25 3 2
25 4 2
25 6 3
25 9 5
25 10 5
25 11 3
25 14 3
25 15 4
25 16 3
25 17 1
25 19 1
25 20 4
25 22 2
25 23 4
26 0 5
26 1 1
26 2 5
26 3 3
26 4 3
26 6 1
26 7 5
26 8 2
26 9 2
26 13 2
26 14 5
26 15 2
26 16 4
26 17 3
26 18 5
26 25 3
27 1 1
27 2 1
27 3 2
27 4 1
27 5 4
27 7 5
27 8 5
27 9 3
27 10 5
27 13 3
27 16 4
27 21 3
27 22 4
27 23 1
27 24 3
27 25 5
27 26 5
28 0 2
28 5 4
28 9 1
28 10 5
28 12 4
28 13 3
28 19 2
28 20 5
28 21 1
28 23 5
28 24 4
28 25 1
28 26 4
29 0 2
29 4 1
29 6 2
29 7 5
29 8 1
29 9 3
29 11 4
29 12 4
29 15 2
29 19 1
29 20 1
29 21 2
29 22 4
29 23 5
29 25 1
30 1 5
30 2 5
30 5 4
30 7 2
30 9 2
30 10 1
30 11 1
30 12 1
30 13 2
30 14 4
30 15 3
30 16 4
30 17 1
30 18 5
30 19 3
31 2 4
31 3 2
31 4 4
31 5 1
31 6 3
31 8 3
31 10 5
31 11 5
31 12 4
31 15 4
31 17 4
31 18 4
31 19 4
31 24 1
31 25 4
31 26 2
31 27 4
31 28 2
31 29 3
31 30 4
32 1 5
32 2 1
32 3 3
32 5 5
32 8 3
32 12 5
32 16 3
32 17 3
32 19 3
32 24 1
32 25 3
32 26 5
32 27 4
32 30 2
33 1 5
33 4 4
33 5 5
33 7 3
33 8 5
33 11 1
33 12 5
33 13 2
33 15 1
33 20 3
33 28 4
33 32 1
34 2 2
34 3 1
34 4 3
34 6 1
34 7 3
34 9 2
34 11 4
34 14 3
34 15 1
34 16 4
34 17 3
34 20 5
34 21 3
34 22 4
34 23 4
34 27 5
34 29 5
34 30 2
34 32 5
35 0 4
35 3 3
35 4 5
35 5 3
35 7 5
35 11 1
35 15 4
35 18 3
35 19 1
35 22 5
35 23 2
35 28 4
35 31 4
35 32 1
36 2 3
36 5 1
36 8 2
36 10 2
36 13 5
36 14 2
36 16 2
36 20 4
36 23 1
36 26 2
36 27 4
36 32 3
36 33 3
36 34 3
37 0 4
37 2 2
37 4 4
37 5 2
37 6 1
37 9 4
37 14 4
37 15 1
37 16 5
37 17 4
37 23 4
37 24 2
37 25 4
37 29 5
37 31 4
37 32 5
37 34 3
37 35 1
37 36 5
38 1 5
38 2 4
38 3 1
38 5 3
38 8 3
38 9 3
38 12 3
38 17 3
38 25 3
38 28 3
38 29 3
38 32 2
38 33 1
38 36 1
39 0 5
39 1 5
39 2 4
39 3 2
39 4 1
39 5 4
39 10 5
39 11 3
39 15 1
39 18 1
39 19 2
39 21 2
39 22 4
39 24 4
39 26 3
39 29 3
39 30 4
39 31 5
39 35 2
39 36 2
39 37 5
39 38 5
40 0 5
40 2 4
40 3 1
40 7 4
40 8 1
40 11 1
40 12 3
40 14 1
40 17 2
40 19 3
40 21 3
40 23 1
40 24 1
40 25 5
40 29 3
40 31 1
40 32 1
40 33 1
40 34 3
40 35 1
40 37 3
40 39 2
41 0 1
41 1 1
41 4 2
41 5 5
41 6 2
41 7 1
41 9 5
41 12 4
41 14 5
41 15 5
41 16 3
41 17 2
41 19 1
41 22 2
41 27 3
41 28 1
41 30 1
41 31 4
41 33 4
41 35 1
41 40 2
42 1 1
42 2 2
42 3 3
42 6 5
42 9 5
42 12 4
42 13 3
42 20 3
42 21 3
42 23 4
42 24 4
42 27 3
42 31 2
42 32 4
42 34 3
42 35 4
42 37 4
42 39 4
43 1 1
43 2 4
43 3 4
43 4 2
43 5 4
43 7 4
43 8 4
43 11 4
43 13 2
43 16 4
43 17 4
43 22 5
43 24 4
43 25 2
43 28 1
43 29 2
43 30 2
43 31 4
43 33 2
43 42 2
44 0 5
44 5 4
44 6 1
44 7 3
44 8 4
44 9 4
44 10 1
44 13 4
44 14 2
44 15 2
44 17 2
44 18 4
44 19 1
44 21 1
44 33 5
44 34 2
44 36 1
44 38 5
44 39 1
44 40 5
44 41 1
45 2 1
45 3 1
45 6 5
45 8 2
45 10 1
45 15 2
45 20 1
45 22 5
45 26 4
45 30 2
45 31 1
45 32 4
45 33 3
45 34 2
45 35 2
45 39 2
45 40 5
45 43 5
45 44 5
46 1 1
46 2 1
46 4 3
46 6 2
46 7 5
46 10 5
46 11 2
46 12 5
46 13 3
46 15 1
46 16 5
46 17 5
46 19 3
46 21 1
46 23 4
46 24 5
46 26 2
46 27 5
46 28 4
46 30 3
46 31 4
46 38 1
46 39 4
46 40 4
46 41 5
46 42 2
46 43 3
47 0 1
47 3 5
47 6 3
47 7 1
47 8 3
47 9 1
47 10 3
47 15 3
47 16 4
47 18 3
47 19 1
47 21 4
47 22 3
47 23 3
47 26 4
47 29 2
47 31 3
47 33 4
47 36 1
47 37 2
47 40 1
47 41 5
47 43 5
47 44 4
47 46 4
48 0 2
48 3 3
48 6 5
48 7 3
48 8 1
48 14 3
48 15 1
48 22 4
48 23 4
48 24 5
48 26 3
48 27 2
48 30 1
48 31 3
48 33 5
48 34 3
48 35 1
48 37 3
48 38 3
48 39 4
48 41 2
48 43 4
48 44 5
48 45 3
48 47 4
49 1 2
49 2 2
49 5 1
49 6 4
49 7 5
49 10 2
49 11 4
49 12 5
49 14 1
49 15 5
49 16 3
49 18 3
49 22 5
49 23 3
49 24 3
49 26 3
49 27 4
49 28 3
49 29 1
49 30 3
49 35 4
49 37 5
49 39 2
49 41 3
49 43 3
49 44 3
49 45 3
49 46 5
49 47 3
50 3 4
50 10 1
50 11 2
50 12 5
50 21 1
50 22 4
50 24 1
50 29 2
50 32 5
50 33 3
50 36 1
50 37 1
50 38 4
50 40 3
50 41 2
50 44 1
50 48 3
50 49 5
51 4 3
51 7 2
51 8 3
51 9 4
51 10 5
51 13 2
51 14 1
51 16 1
51 17 4
51 18 1
51 19 1
51 22 4
51 23 3
51 25 4
51 26 4
51 28 3
51 29 4
51 30 4
51 33 5
51 34 4
51 35 1
51 38 1
51 39 2
51 45 4
51 46 5
51 47 1
51 48 1
51 49 4
51 50 4
52 1 1
52 3 3
52 5 3
52 6 5
52 7 3
52 10 3
52 11 2
52 12 4
52 16 1
52 20 2
52 23 1
52 26 3
52 30 5
52 32 1
52 33 1
52 34 2
52 35 1
52 36 4
52 41 1
52 42 3
52 43 5
52 46 2
52 48 4
52 49 5
52 51 4
53 0 4
53 2 3
53 3 1
53 7 5
53 8 4
53 10 3
53 11 2
53 12 4
53 13 5
53 15 2
53 20 3
53 23 5
53 25 2
53 28 5
53 30 2
53 31 2
53 35 2
53 36 4
53 39 1
53 42 2
53 43 1
53 45 4
53 49 2
53 50 5
53 51 5
53 52 1
54 0 5
54 3 2
54 5 4
54 6 1
54 10 2
54 11 3
54 13 4
54 14 2
54 16 1
54 18 2
54 19 1
54 21 5
54 23 3
54 27 4
54 31 4
54 32 5
54 33 3
54 34 5
54 35 3
54 38 3
54 42 1
54 43 1
54 44 4
54 45 1
54 50 2
54 53 5
55 2 2
55 3 4
55 4 5
55 5 4
55 6 3
55 11 2
55 16 3
55 23 4
55 24 4
55 26 3
55 29 1
55 33 3
55 34 4
55 35 5
55 39 3
55 40 1
55 41 5
55 42 2
55 43 5
55 45 4
55 48 2
55 50 3
55 52 4
55 53 4
55 54 3
56 0 5
56 1 5
56 2 2
56 3 3
56 7 5
56 11 3
56 12 5
56 13 1
56 14 3
56 15 5
56 17 5
56 18 4
56 19 1
56 20 3
56 21 5
56 22 3
56 23 1
56 24 4
56 27 1
56 28 3
56 29 4
56 30 2
56 32 3
56 33 3
56 35 2
56 36 5
56 38 2
56 42 3
56 45 4
56 46 5
56 47 4
56 52 4
56 53 3
57 0 3
57 1 5
57 5 2
57 6 4
57 12 5
57 14 1
57 17 2
57 18 1
57 23 3
57 25 4
57 27 4
57 32 2
57 33 4
57 35 5
57 36 1
57 39 4
57 40 5
57 41 4
57 42 5
57 46 2
57 48 4
57 49 2
57 50 1
57 51 4
57 52 5
57 53 5
57 56 3
58 2 2
58 4 4
58 7 1
58 9 1
58 10 5
58 11 1
58 13 4
58 14 2
58 16 4
58 18 5
58 19 3
58 20 2
58 26 4
58 29 5
58 31 1
58 33 3
58 35 2
58 36 2
58 37 1
58 39 1
58 42 5
58 44 1
58 45 5
58 48 5
58 53 5
58 54 3
58 56 5
59 0 2
59 2 3
59 3 1
59 4 3
59 6 2
59 7 1
59 10 4
59 11 1
59 15 5
59 16 1
59 20 4
59 21 2
59 22 2
59 24 3
59 25 1
59 27 4
59 28 5
59 32 3
59 35 1
59 36 3
59 38 1
59 39 5
59 41 4
59 43 3
59 45 3
59 50 2
59 53 5
59 54 1
59 58 3
60 2 2
60 4 3
60 7 1
60 8 3
60 11 4
60 12 4
60 13 1
60 15 5
60 18 5
60 22 5
60 26 3
60 27 1
60 32 3
60 33 3
60 35 3
60 39 4
60 40 3
60 43 1
60 51 1
60 52 3
60 53 4
60 54 2
60 55 5
60 57 1
60 58 5
61 1 2
61 2 5
61 3 1
61 4 4
61 5 3
61 6 5
61 7 5
61 9 4
61 16 3
61 17 5
61 20 5
61 22 2
61 25 2
61 28 5
61 31 4
61 34 2
61 35 1
61 36 2
61 38 2
61 39 1
61 40 5
61 41 4
61 44 5
61 45 2
61 47 3
61 48 2
61 51 5
61 52 5
61 53 3
61 55 1
61 56 3
61 60 5
62 0 4
62 2 1
62 4 3
62 8 2
62 10 1
62 13 3
62 14 1
62 18 2
62 21 4
62 22 5
62 23 3
62 27 2
62 28 4
62 30 2
62 32 1
62 34 4
62 37 1
62 41 4
62 44 1
62 48 2
62 50 5
62 51 1
62 53 5
62 54 2
62 56 4
62 59 4
62 60 2
63 0 4
63 3 2
63 5 1
63 9 2
63 11 1
63 12 1
63 13 2
63 15 5
63 16 4
63 19 3
63 22 2
63 23 1
63 24 3
63 26 3
63 27 4
63 32 4
63 33 2
63 34 4
63 38 4
63 39 4
63 43 3
63 44 2
63 45 2
63 50 2
63 52 4
63 53 3
63 58 1
63 59 5
64 0 4
64 1 5
64 2 1
64 3 5
64 4 5
64 7 1
64 16 3
64 18 3
64 24 4
64 28 1
64 29 5
64 31 5
64 32 4
64 33 3
64 34 1
64 36 1
64 37 2
64 40 2
64 41 4
64 42 3
64 43 1
64 44 1
64 45 5
64 49 4
64 53 2
